sat
(:SPACER-cex-depth                    3
 :SPACER-expand-pob-undef             4
 :SPACER-inductive-gen                8
 :SPACER-inductive-gen-weaken-fail    9
 :SPACER-inductive-gen-weaken-success 2
 :SPACER-max-depth                    3
 :SPACER-max-query-lvl                3
 :SPACER-num-active-lemmas            7
 :SPACER-num-ctp-blocked              1
 :SPACER-num-is_invariant             9
 :SPACER-num-lemmas                   11
 :SPACER-num-pobs                     8
 :SPACER-num-queries                  11
 :SPACER-num-reach-queries            3
 :SPACER-num-reuse-reach-facts        2
 :added-eqs                           2500
 :arith-assert-diseq                  526
 :arith-assert-lower                  1508
 :arith-assert-upper                  1386
 :arith-bound-prop                    254
 :arith-branch-var                    4
 :arith-conflicts                     24
 :arith-eq-adapter                    382
 :arith-fixed-eqs                     534
 :arith-gcd-conflicts                 12
 :arith-gcd-tests                     16
 :arith-ineq-splits                   4
 :arith-num-rows                      46
 :arith-offset-eqs                    120
 :arith-patches                       6
 :arith-patches_succ                  2
 :arith-pivots                        338
 :arith-row-summations                1272
 :arith-tableau-max-columns           102
 :arith-tableau-max-rows              46
 :conflicts                           138
 :decisions                           1414
 :del-clause                          856
 :final-checks                        76
 :iuc_solver.num_proxies              27
 :max-memory                          30.62
 :memory                              30.62
 :minimized-lits                      46
 :mk-bool-var                         1646
 :mk-clause                           1574
 :num-allocs                          4676881
 :num-checks                          128
 :pool_solver.checks                  64
 :pool_solver.checks.sat              20
 :pool_solver.checks.undef            10
 :propagations                        5504
 :rlimit-count                        39678
 :time                                0.05
 :time.iuc_solver.get_iuc             0.00
 :time.iuc_solver.get_iuc.hyp_reduce2 0.00
 :time.pool_solver.smt.total          0.02
 :time.pool_solver.smt.total.sat      0.01
 :time.pool_solver.smt.total.undef    0.00
 :time.spacer.init_rules              0.00
 :time.spacer.mbp                     0.00
 :time.spacer.solve                   0.04
 :time.spacer.solve.propagate         0.01
 :time.spacer.solve.reach             0.03
 :time.spacer.solve.reach.children    0.00
 :time.spacer.solve.reach.gen.ind     0.00
 :time.spacer.solve.reach.is-reach    0.00)
(:max-memory   30.62
 :memory       30.62
 :num-allocs   4676881
 :rlimit-count 39678
 :time         0.05
 :total-time   0.07)
